(set-logic ALL)
(declare-fun seed0_T_1 () Int)
(declare-fun seed0_T_2 () Bool)
(declare-fun seed0_T_3 () Bool)
(declare-fun seed0_var_0xINPUT_476 () String)
(assert (and (or (>= seed0_T_1 (str.len seed0_var_0xINPUT_476)) (and (str.< (str.++ seed0_var_0xINPUT_476 "aCWQouOVcZLxmRwTJsF") (str.++ seed0_var_0xINPUT_476 "AjNW")) (str.contains (str.++ seed0_var_0xINPUT_476 "OKlmGJntNUiMf7YbpZ6") (str.++ seed0_var_0xINPUT_476 "POgt6")))) (or (= seed0_T_2 (< 0 seed0_T_1)) (and (= (+ seed0_T_1 447) (* seed0_T_1 seed0_T_1)) (distinct (* seed0_T_1 seed0_T_1) (div seed0_T_1 seed0_T_1)))) (or (= seed0_T_3 (not seed0_T_2)) (xor (str.< (str.++ seed0_var_0xINPUT_476 "OjW8wvs") (str.++ seed0_var_0xINPUT_476 "eBbG6K")) (str.contains (str.++ seed0_var_0xINPUT_476 "rQwRl") (str.++ seed0_var_0xINPUT_476 "hd5OyEsX")))) (or seed0_T_3 (or (>= (* seed0_T_1 seed0_T_1) (- seed0_T_1 (- 549))) (> (- seed0_T_1 10) (- seed0_T_1 393))))))
(check-sat)
(exit)